50
15776

627 517
84 253
399 721
811 143
5 349
433 622
197 433
855 19
138 593
316 214
414 55
553 968
459 113
513 424
418 195
50 883
907 207
57 368
289 905
83 405
460 489
92 532
663 435
819 765
261 211
497 730
20 361
113 635
815 267
155 836
553 650
597 945
936 752
423 360
406 367
133 392
766 778
139 708
192 763
256 231
877 396
117 642
109 932
382 931
306 663
99 745
869 272
88 803
89 616
442 990
